Maximize
  obj: +0 x0 +0 x1 -0 x2 +0 x3 -0 x4 +0 x5 +0 x6 -0 x7 -0 x8 +0 x9 -23 x10 +61 x11 +71 x12 +157 x13 -183 x14 +37 x15 -155 x16 +103 x17 -83 x18 -103 x19 
Subject to
  c1: +7 x0 +20 x1 +16 x2 +0 x3 +0 x4 +0 x5 +20 x6 +12 x7 +0 x8 +2 x9 +11 x10 <= 67
  c2: +8 x0 +0 x1 +0 x2 +0 x3 +0 x4 +18 x5 +0 x6 +18 x7 +8 x8 +0 x9 +16 x11 <= 67
  c3: +14 x0 +0 x1 +0 x2 +0 x3 +0 x4 +0 x5 +0 x6 +2 x7 +16 x8 +0 x9 +8 x12 <= 53
  c4: +0 x0 +0 x1 +0 x2 +0 x3 +0 x4 +0 x5 +9 x6 +0 x7 +0 x8 +0 x9 +2 x13 <= 62
  c5: +13 x0 +7 x1 +18 x2 +0 x3 +10 x4 +0 x5 +0 x6 +18 x7 +19 x8 +0 x9 +18 x14 <= 89
  c6: +6 x0 +17 x1 +0 x2 +0 x3 +0 x4 +0 x5 +20 x6 +0 x7 +3 x8 +0 x9 +10 x15 <= 85
  c7: +0 x0 +8 x1 +0 x2 +0 x3 +0 x4 +0 x5 +0 x6 +0 x7 +18 x8 +7 x9 +20 x16 <= 67
  c8: +0 x0 +16 x1 +0 x2 +6 x3 +0 x4 +0 x5 +5 x6 +0 x7 +18 x8 +19 x9 +18 x17 <= 90
  c9: +0 x0 +0 x1 +0 x2 +12 x3 +0 x4 -1 x5 +0 x6 +0 x7 +0 x8 +0 x9 +6 x18 <= 88
  c10: +0 x0 +0 x1 +7 x2 +0 x3 +0 x4 +0 x5 +10 x6 +0 x7 +0 x8 +0 x9 +9 x19 <= 81
  c11: -1 x0 +0 x1 +15 x2 +2 x3 +0 x4 +9 x5 +20 x6 +0 x7 +13 x8 +13 x9 <= 55
  c12: +0 x0 +6 x1 -1 x2 +1 x3 +0 x4 +6 x5 +0 x6 +0 x7 +15 x8 +0 x9 <= 84
  c13: +2 x0 +0 x1 +0 x2 +0 x3 +19 x4 +19 x5 +0 x6 +12 x7 +5 x8 +10 x9 <= 96
  c14: +5 x0 +0 x1 +0 x2 +9 x3 +0 x4 +0 x5 +0 x6 +0 x7 +4 x8 +0 x9 <= 72
  c15: +0 x0 +0 x1 +0 x2 +12 x3 +1 x4 +11 x5 +0 x6 +0 x7 +0 x8 +19 x9 <= 68
  c16: +9 x0 +0 x1 +0 x2 +11 x3 +0 x4 +11 x5 +0 x6 +0 x7 +0 x8 +10 x9 <= 64
  c17: +0 x0 +9 x1 +19 x2 +0 x3 +12 x4 +0 x5 +0 x6 +0 x7 +2 x8 +11 x9 <= 88
  c18: +7 x0 +0 x1 +11 x2 +0 x3 +0 x4 +0 x5 +0 x6 +0 x7 +13 x8 +0 x9 <= 52
  c19: +0 x0 +10 x1 +0 x2 +0 x3 +19 x4 +0 x5 +0 x6 +0 x7 +0 x8 +13 x9 <= 70
  c20: + x10 + x11 + x12 + x13 + x14 + x15 + x16 + x17 + x18 + x19 <= 3.333333
Binary
 x10
 x11
 x12
 x13
 x14
 x15
 x16
 x17
 x18
 x19
End
